experiment/data/lkh-res/Vrp-Set-X-n134/Vrp-Set-X-n134-lkh/0.lkh1.vrp
NAME : 0
COMMENT : CVRP Instance
TYPE : CVRP
DIMENSION : 134
EDGE_WEIGHT_TYPE : EUC_2D
CAPACITY : 643
NODE_COORD_SECTION
1	11300	19500
2	37700	23900
3	36400	3900
4	30600	31600
5	79500	1800
6	56000	11500
7	50100	14700
8	70400	6800
9	76200	6200
10	35700	3300
11	35900	35300
12	31400	18600
13	33800	30300
14	52200	8000
15	29100	5800
16	73500	1500
17	32400	1200
18	27500	27800
19	40900	3200
20	27900	29700
21	84400	2700
22	44700	30300
23	79600	400
24	73500	11100
25	37300	46100
26	38500	10000
27	28100	37800
28	79300	700
29	96500	6400
30	34700	25600
31	74200	7500
32	33900	24400
33	33400	39100
34	32300	31400
35	34500	6900
36	29500	37000
37	46200	24000
38	42600	44600
39	28600	33500
40	37400	3400
41	20100	15300
42	35600	7400
43	76700	23600
44	45000	21800
45	78900	6100
46	46700	33200
47	43700	29300
48	35700	2100
49	38600	20700
50	38900	23400
51	28100	34400
52	31200	300
53	31700	16300
54	58200	18600
55	30100	41100
56	82200	600
57	19700	43700
58	38600	26800
59	29400	7400
60	42500	5500
61	27900	8100
62	38200	25100
63	35100	38500
64	70100	3200
65	38400	21400
66	86600	24300
67	54600	18600
68	81500	2900
69	73400	5700
70	37700	23500
71	79300	3100
72	39200	24800
73	30800	31400
74	39600	2700
75	25000	34500
76	90300	6600
77	26600	26400
78	58000	14200
79	19100	28800
80	40800	22500
81	29700	28300
82	73300	3800
83	31200	29300
84	18000	25000
85	76400	4500
86	35100	28400
87	32100	31800
88	20800	34800
89	45100	42300
90	36500	14200
91	48700	17500
92	26700	5100
93	34600	24800
94	57500	29400
95	58500	34600
96	19900	13600
97	48500	2400
98	54200	10900
99	81300	11700
100	44200	28000
101	21200	19200
102	34400	17000
103	57400	42600
104	32500	34300
105	42600	27200
106	34900	9000
107	38900	30200
108	76900	5100
109	48900	16500
110	17400	28800
111	28500	41900
112	43400	25700
113	37600	21000
114	40000	12400
115	32000	19100
116	30400	26000
117	33900	13800
118	39000	22200
119	12900	4700
120	37600	26200
121	41600	24000
122	68800	8000
123	28900	19300
124	27000	41800
125	32200	31100
126	30300	22800
127	82900	1300
128	31500	21200
129	26600	23900
130	32600	13600
131	28700	29800
132	31900	17600
133	7900	22100
134	32300	29100
DEMAND_SECTION
1	0
2	53
3	73
4	60
5	20
6	23
7	3
8	46
9	28
10	84
11	72
12	64
13	100
14	10
15	74
16	29
17	87
18	95
19	51
20	67
21	17
22	51
23	33
24	12
25	85
26	54
27	79
28	26
29	26
30	58
31	35
32	99
33	97
34	73
35	93
36	54
37	56
38	89
39	86
40	85
41	79
42	60
43	9
44	98
45	23
46	78
47	53
48	92
49	53
50	80
51	54
52	89
53	94
54	47
55	73
56	45
57	90
58	71
59	65
60	77
61	99
62	91
63	91
64	28
65	61
66	26
67	7
68	19
69	12
70	70
71	12
72	52
73	52
74	84
75	89
76	37
77	59
78	42
79	99
80	56
81	64
82	29
83	54
84	73
85	34
86	69
87	95
88	89
89	67
90	63
91	74
92	66
93	92
94	13
95	34
96	95
97	90
98	22
99	16
100	93
101	71
102	83
103	49
104	85
105	73
106	93
107	59
108	39
109	56
110	55
111	55
112	73
113	90
114	74
115	95
116	80
117	70
118	74
119	77
120	89
121	64
122	12
123	74
124	77
125	69
126	85
127	40
128	57
129	53
130	62
131	76
132	72
133	66
134	78
DEPOT_SECTION
1
-1
EOF
