experiment/data/lkh-res/Vrp-Set-X-n134/Vrp-Set-X-n134-lkh/0.lkh1.log
PARAMETER_FILE = baseline_results/cvrp_lkh/Vrp-Set-X-n134/Vrp-Set-X-n134-lkh/0.lkh1.par
Reading PROBLEM_FILE: "baseline_results/cvrp_lkh/Vrp-Set-X-n134/Vrp-Set-X-n134-lkh/0.lkh1.vrp" ... done
ASCENT_CANDIDATES = 50
BACKBONE_TRIALS = 0
BACKTRACKING = NO
# BWTSP =
# CANDIDATE_FILE =
CANDIDATE_SET_TYPE = ALPHA
# DISTANCE =
DEPOT = 1
# EDGE_FILE =
EXCESS = 0.00746269
EXTERNAL_SALESMEN = 0
EXTRA_CANDIDATES = 0 
EXTRA_CANDIDATE_SET_TYPE = QUADRANT
GAIN23 = NO
GAIN_CRITERION = YES
INITIAL_PERIOD = 100
INITIAL_STEP_SIZE = 1
INITIAL_TOUR_ALGORITHM = WALK
# INITIAL_TOUR_FILE = 
INITIAL_TOUR_FRACTION = 1.000
# INPUT_TOUR_FILE = 
KICK_TYPE = 4
KICKS = 1
# MAX_BREADTH =
MAKESPAN = NO
MAX_CANDIDATES = 5 
MAX_SWAPS = 0
MAX_TRIALS = 10000
# MERGE_TOUR_FILE =
MOVE_TYPE = 5 SPECIAL
MTSP_MIN_SIZE = 1
MTSP_MAX_SIZE = 133
# MTSP_SOLUTION_FILE = 
# NONSEQUENTIAL_MOVE_TYPE = 5
# OPTIMUM =
OUTPUT_TOUR_FILE = baseline_results/cvrp_lkh/Vrp-Set-X-n134/Vrp-Set-X-n134-lkh/0.lkh1.tour
PATCHING_A = 1 
PATCHING_C = 0 
# PI_FILE = 
POPMUSIC_INITIAL_TOUR = NO
POPMUSIC_MAX_NEIGHBORS = 5
POPMUSIC_SAMPLE_SIZE = 10
POPMUSIC_SOLUTIONS = 50
POPMUSIC_TRIALS = 1
POPULATION_SIZE = 10
PRECISION = 100
PROBLEM_FILE = baseline_results/cvrp_lkh/Vrp-Set-X-n134/Vrp-Set-X-n134-lkh/0.lkh1.vrp
RECOMBINATION = IPT
RESTRICTED_SEARCH = YES
RUNS = 1
SALESMEN = 13
SCALE = 1
SEED = 1234
# SINTEF_SOLUTION_FILE = 
STOP_AT_OPTIMUM = YES
SUBGRADIENT = YES
# SUBPROBLEM_SIZE =
# SUBPROBLEM_TOUR_FILE = 
SUBSEQUENT_MOVE_TYPE = 5 SPECIAL
SUBSEQUENT_PATCHING = YES
# TIME_LIMIT =
# TOTAL_TIME_LIMIT =
# TOUR_FILE = 
TRACE_LEVEL = 1
VEHICLES = 13

Lower bound = 731581.8, Ascent time = 0.03 sec.
Cand.min = 2, Cand.avg = 4.9, Cand.max = 5
Preprocessing time = 0.03 sec.
* 1: Cost = 0_1344226, Time = 0.03 sec. 
Writing OUTPUT_TOUR_FILE: "baseline_results/cvrp_lkh/Vrp-Set-X-n134/Vrp-Set-X-n134-lkh/0.lkh1.tour" ... done
* 2: Cost = 0_1204394, Time = 0.04 sec. 
Writing OUTPUT_TOUR_FILE: "baseline_results/cvrp_lkh/Vrp-Set-X-n134/Vrp-Set-X-n134-lkh/0.lkh1.tour" ... done
* 3: Cost = 0_1193060, Time = 0.05 sec. 
Writing OUTPUT_TOUR_FILE: "baseline_results/cvrp_lkh/Vrp-Set-X-n134/Vrp-Set-X-n134-lkh/0.lkh1.tour" ... done
* 5: Cost = 0_1158502, Time = 0.11 sec. 
Writing OUTPUT_TOUR_FILE: "baseline_results/cvrp_lkh/Vrp-Set-X-n134/Vrp-Set-X-n134-lkh/0.lkh1.tour" ... done
* 6: Cost = 0_1156667, Time = 0.11 sec. 
Writing OUTPUT_TOUR_FILE: "baseline_results/cvrp_lkh/Vrp-Set-X-n134/Vrp-Set-X-n134-lkh/0.lkh1.tour" ... done
* 9: Cost = 0_1154512, Time = 0.15 sec. 
Writing OUTPUT_TOUR_FILE: "baseline_results/cvrp_lkh/Vrp-Set-X-n134/Vrp-Set-X-n134-lkh/0.lkh1.tour" ... done
* 12: Cost = 0_1149869, Time = 0.18 sec. 
Writing OUTPUT_TOUR_FILE: "baseline_results/cvrp_lkh/Vrp-Set-X-n134/Vrp-Set-X-n134-lkh/0.lkh1.tour" ... done
* 15: Cost = 0_1137104, Time = 0.20 sec. 
Writing OUTPUT_TOUR_FILE: "baseline_results/cvrp_lkh/Vrp-Set-X-n134/Vrp-Set-X-n134-lkh/0.lkh1.tour" ... done
* 36: Cost = 0_1136787, Time = 0.36 sec. 
Writing OUTPUT_TOUR_FILE: "baseline_results/cvrp_lkh/Vrp-Set-X-n134/Vrp-Set-X-n134-lkh/0.lkh1.tour" ... done
* 48: Cost = 0_1136062, Time = 0.45 sec. 
Writing OUTPUT_TOUR_FILE: "baseline_results/cvrp_lkh/Vrp-Set-X-n134/Vrp-Set-X-n134-lkh/0.lkh1.tour" ... done
* 50: Cost = 0_1133999, Time = 0.47 sec. 
Writing OUTPUT_TOUR_FILE: "baseline_results/cvrp_lkh/Vrp-Set-X-n134/Vrp-Set-X-n134-lkh/0.lkh1.tour" ... done
* 58: Cost = 0_1126798, Time = 0.52 sec. 
Writing OUTPUT_TOUR_FILE: "baseline_results/cvrp_lkh/Vrp-Set-X-n134/Vrp-Set-X-n134-lkh/0.lkh1.tour" ... done
* 61: Cost = 0_1126421, Time = 0.56 sec. 
Writing OUTPUT_TOUR_FILE: "baseline_results/cvrp_lkh/Vrp-Set-X-n134/Vrp-Set-X-n134-lkh/0.lkh1.tour" ... done
* 69: Cost = 0_1123150, Time = 0.64 sec. 
Writing OUTPUT_TOUR_FILE: "baseline_results/cvrp_lkh/Vrp-Set-X-n134/Vrp-Set-X-n134-lkh/0.lkh1.tour" ... done
* 82: Cost = 0_1122533, Time = 0.75 sec. 
Writing OUTPUT_TOUR_FILE: "baseline_results/cvrp_lkh/Vrp-Set-X-n134/Vrp-Set-X-n134-lkh/0.lkh1.tour" ... done
* 99: Cost = 0_1122404, Time = 0.90 sec. 
Writing OUTPUT_TOUR_FILE: "baseline_results/cvrp_lkh/Vrp-Set-X-n134/Vrp-Set-X-n134-lkh/0.lkh1.tour" ... done
* 114: Cost = 0_1120579, Time = 1.03 sec. 
Writing OUTPUT_TOUR_FILE: "baseline_results/cvrp_lkh/Vrp-Set-X-n134/Vrp-Set-X-n134-lkh/0.lkh1.tour" ... done
* 124: Cost = 0_1120367, Time = 1.12 sec. 
Writing OUTPUT_TOUR_FILE: "baseline_results/cvrp_lkh/Vrp-Set-X-n134/Vrp-Set-X-n134-lkh/0.lkh1.tour" ... done
* 132: Cost = 0_1120246, Time = 1.21 sec. 
Writing OUTPUT_TOUR_FILE: "baseline_results/cvrp_lkh/Vrp-Set-X-n134/Vrp-Set-X-n134-lkh/0.lkh1.tour" ... done
* 141: Cost = 0_1119181, Time = 1.24 sec. 
Writing OUTPUT_TOUR_FILE: "baseline_results/cvrp_lkh/Vrp-Set-X-n134/Vrp-Set-X-n134-lkh/0.lkh1.tour" ... done
* 158: Cost = 0_1118984, Time = 1.36 sec. 
Writing OUTPUT_TOUR_FILE: "baseline_results/cvrp_lkh/Vrp-Set-X-n134/Vrp-Set-X-n134-lkh/0.lkh1.tour" ... done
* 170: Cost = 0_1116955, Time = 1.44 sec. 
Writing OUTPUT_TOUR_FILE: "baseline_results/cvrp_lkh/Vrp-Set-X-n134/Vrp-Set-X-n134-lkh/0.lkh1.tour" ... done
* 171: Cost = 0_1116701, Time = 1.44 sec. 
Writing OUTPUT_TOUR_FILE: "baseline_results/cvrp_lkh/Vrp-Set-X-n134/Vrp-Set-X-n134-lkh/0.lkh1.tour" ... done
* 175: Cost = 0_1115171, Time = 1.48 sec. 
Writing OUTPUT_TOUR_FILE: "baseline_results/cvrp_lkh/Vrp-Set-X-n134/Vrp-Set-X-n134-lkh/0.lkh1.tour" ... done
* 184: Cost = 0_1114286, Time = 1.56 sec. 
Writing OUTPUT_TOUR_FILE: "baseline_results/cvrp_lkh/Vrp-Set-X-n134/Vrp-Set-X-n134-lkh/0.lkh1.tour" ... done
* 445: Cost = 0_1112713, Time = 3.93 sec. 
Writing OUTPUT_TOUR_FILE: "baseline_results/cvrp_lkh/Vrp-Set-X-n134/Vrp-Set-X-n134-lkh/0.lkh1.tour" ... done
* 635: Cost = 0_1107710, Time = 5.76 sec. 
Writing OUTPUT_TOUR_FILE: "baseline_results/cvrp_lkh/Vrp-Set-X-n134/Vrp-Set-X-n134-lkh/0.lkh1.tour" ... done
* 640: Cost = 0_1105778, Time = 5.83 sec. 
Writing OUTPUT_TOUR_FILE: "baseline_results/cvrp_lkh/Vrp-Set-X-n134/Vrp-Set-X-n134-lkh/0.lkh1.tour" ... done
* 661: Cost = 0_1104716, Time = 6.03 sec. 
Writing OUTPUT_TOUR_FILE: "baseline_results/cvrp_lkh/Vrp-Set-X-n134/Vrp-Set-X-n134-lkh/0.lkh1.tour" ... done
* 666: Cost = 0_1104345, Time = 6.07 sec. 
Writing OUTPUT_TOUR_FILE: "baseline_results/cvrp_lkh/Vrp-Set-X-n134/Vrp-Set-X-n134-lkh/0.lkh1.tour" ... done
* 690: Cost = 0_1103991, Time = 6.27 sec. 
Writing OUTPUT_TOUR_FILE: "baseline_results/cvrp_lkh/Vrp-Set-X-n134/Vrp-Set-X-n134-lkh/0.lkh1.tour" ... done
* 703: Cost = 0_1103171, Time = 6.40 sec. 
Writing OUTPUT_TOUR_FILE: "baseline_results/cvrp_lkh/Vrp-Set-X-n134/Vrp-Set-X-n134-lkh/0.lkh1.tour" ... done
* 707: Cost = 0_1103057, Time = 6.42 sec. 
Writing OUTPUT_TOUR_FILE: "baseline_results/cvrp_lkh/Vrp-Set-X-n134/Vrp-Set-X-n134-lkh/0.lkh1.tour" ... done
* 715: Cost = 0_1101432, Time = 6.49 sec. 
Writing OUTPUT_TOUR_FILE: "baseline_results/cvrp_lkh/Vrp-Set-X-n134/Vrp-Set-X-n134-lkh/0.lkh1.tour" ... done
* 726: Cost = 0_1101020, Time = 6.61 sec. 
Writing OUTPUT_TOUR_FILE: "baseline_results/cvrp_lkh/Vrp-Set-X-n134/Vrp-Set-X-n134-lkh/0.lkh1.tour" ... done
* 767: Cost = 0_1100771, Time = 6.92 sec. 
Writing OUTPUT_TOUR_FILE: "baseline_results/cvrp_lkh/Vrp-Set-X-n134/Vrp-Set-X-n134-lkh/0.lkh1.tour" ... done
* 788: Cost = 0_1098798, Time = 7.16 sec. 
Writing OUTPUT_TOUR_FILE: "baseline_results/cvrp_lkh/Vrp-Set-X-n134/Vrp-Set-X-n134-lkh/0.lkh1.tour" ... done
* 846: Cost = 0_1098753, Time = 7.57 sec. 
Writing OUTPUT_TOUR_FILE: "baseline_results/cvrp_lkh/Vrp-Set-X-n134/Vrp-Set-X-n134-lkh/0.lkh1.tour" ... done
* 966: Cost = 0_1098417, Time = 8.38 sec. 
Writing OUTPUT_TOUR_FILE: "baseline_results/cvrp_lkh/Vrp-Set-X-n134/Vrp-Set-X-n134-lkh/0.lkh1.tour" ... done
* 1147: Cost = 0_1097251, Time = 9.83 sec. 
Writing OUTPUT_TOUR_FILE: "baseline_results/cvrp_lkh/Vrp-Set-X-n134/Vrp-Set-X-n134-lkh/0.lkh1.tour" ... done
* 1184: Cost = 0_1097014, Time = 10.22 sec. 
Writing OUTPUT_TOUR_FILE: "baseline_results/cvrp_lkh/Vrp-Set-X-n134/Vrp-Set-X-n134-lkh/0.lkh1.tour" ... done
* 1312: Cost = 0_1096984, Time = 11.19 sec. 
Writing OUTPUT_TOUR_FILE: "baseline_results/cvrp_lkh/Vrp-Set-X-n134/Vrp-Set-X-n134-lkh/0.lkh1.tour" ... done
* 1331: Cost = 0_1094621, Time = 11.34 sec. 
Writing OUTPUT_TOUR_FILE: "baseline_results/cvrp_lkh/Vrp-Set-X-n134/Vrp-Set-X-n134-lkh/0.lkh1.tour" ... done
* 2061: Cost = 0_1094533, Time = 16.87 sec. 
Writing OUTPUT_TOUR_FILE: "baseline_results/cvrp_lkh/Vrp-Set-X-n134/Vrp-Set-X-n134-lkh/0.lkh1.tour" ... done
* 9670: Cost = 0_1094156, Time = 83.17 sec. 
Writing OUTPUT_TOUR_FILE: "baseline_results/cvrp_lkh/Vrp-Set-X-n134/Vrp-Set-X-n134-lkh/0.lkh1.tour" ... done
Population:
  1: 0_1094156
Run 1: Cost = 0_1094156, Time = 86.64 sec. 

Successes/Runs = 0/1 
Cost.min = 1094156, Cost.avg = 1094156.00, Cost.max = 1094156
Gap.min = 0.0000%, Gap.avg = 0.0000%, Gap.max = 0.0000%
Penalty.min = 0, Penalty.avg = 0.00, Penalty.max = 0
Trials.min = 10000, Trials.avg = 10000.0, Trials.max = 10000
Time.min = 86.64 sec., Time.avg = 86.64 sec., Time.max = 86.64 sec.
Time.total = 86.67 sec.
  Size.min = 7, Size.max = 24, Penalty = 0
  Cost.min = 50375, Cost.max = 213850, Cost.sum = 1094156
Best CVRP solution:
  Cost = 0_1094156

