experiment/data/lkh-res/Vrp-Set-X-n134/Vrp-Set-X-n134-lkh/0.lkh1.tour
NAME : 0.1094156.tour
COMMENT : Length = 1094156
COMMENT : Found by LKH-3 [Keld Helsgaun] Tue Apr  9 03:20:12 2024
TYPE : TOUR
DIMENSION : 146
TOUR_SECTION
1
120
58
105
100
47
22
46
107
86
145
109
7
98
6
122
8
69
31
9
45
68
21
127
56
23
28
5
71
108
85
82
16
64
14
136
41
61
59
15
17
52
92
119
141
4
73
87
34
125
13
134
83
77
142
129
126
116
81
131
18
79
84
135
25
38
89
103
95
94
43
66
29
76
99
24
78
54
67
91
138
48
10
3
40
74
19
97
60
140
106
35
42
26
114
90
117
130
101
137
96
53
102
132
115
12
123
144
128
49
65
118
50
70
2
93
32
139
57
124
111
55
33
63
11
104
146
113
80
44
37
112
121
72
62
30
143
20
39
51
36
27
75
88
110
133
-1
EOF
